n_trains = 25;
n_tracks = 6;
tracks = [{1},{2, 3},{4, 5, 6, 7, 8},{9, 10, 11, 12, 13, 14, 15},{16, 17, 18, 19, 20},{21, 22, 23, 24, 25}];
arrival_order = [1, 2, 3, 4, 5, 6, 7, 8, 9, 10, 11, 12, 13, 14, 15, 16, 17, 18, 19, 20, 21, 22, 23, 24, 25];
departure_order = [24, 9, 18, 1, 20, 25, 13, 23, 17, 19, 15, 4, 12, 16, 22, 14, 8, 2, 6, 5, 3, 21, 10, 11, 7];
